c nIsolatedPIs 96
c maxPI 32
p cnf 94 187
c gate 33 2 18 0
2 -33 0
18 -33 0
-2 -18 33 0
c gate 34 1 17 0
1 -34 0
17 -34 0
-1 -17 34 0
c gate 35 -33 -34 0
-33 -35 0
-34 -35 0
33 34 35 0
c gate 36 -2 -18 0
-2 -36 0
-18 -36 0
2 18 36 0
c gate 37 -3 -19 0
-3 -37 0
-19 -37 0
3 19 37 0
c gate 38 -36 -37 0
-36 -38 0
-37 -38 0
36 37 38 0
c gate 39 -35 38 0
-35 -39 0
38 -39 0
35 -38 39 0
c gate 40 4 20 0
4 -40 0
20 -40 0
-4 -20 40 0
c gate 41 3 19 0
3 -41 0
19 -41 0
-3 -19 41 0
c gate 42 -40 -41 0
-40 -42 0
-41 -42 0
40 41 42 0
c gate 43 -39 42 0
-39 -43 0
42 -43 0
39 -42 43 0
c gate 44 -4 -20 0
-4 -44 0
-20 -44 0
4 20 44 0
c gate 45 -5 -21 0
-5 -45 0
-21 -45 0
5 21 45 0
c gate 46 -44 -45 0
-44 -46 0
-45 -46 0
44 45 46 0
c gate 47 -43 46 0
-43 -47 0
46 -47 0
43 -46 47 0
c gate 48 6 22 0
6 -48 0
22 -48 0
-6 -22 48 0
c gate 49 5 21 0
5 -49 0
21 -49 0
-5 -21 49 0
c gate 50 -48 -49 0
-48 -50 0
-49 -50 0
48 49 50 0
c gate 51 -47 50 0
-47 -51 0
50 -51 0
47 -50 51 0
c gate 52 -7 -23 0
-7 -52 0
-23 -52 0
7 23 52 0
c gate 53 -6 -22 0
-6 -53 0
-22 -53 0
6 22 53 0
c gate 54 -52 -53 0
-52 -54 0
-53 -54 0
52 53 54 0
c gate 55 -51 54 0
-51 -55 0
54 -55 0
51 -54 55 0
c gate 56 7 23 0
7 -56 0
23 -56 0
-7 -23 56 0
c gate 57 8 24 0
8 -57 0
24 -57 0
-8 -24 57 0
c gate 58 -56 -57 0
-56 -58 0
-57 -58 0
56 57 58 0
c gate 59 -55 58 0
-55 -59 0
58 -59 0
55 -58 59 0
c gate 60 -12 -28 0
-12 -60 0
-28 -60 0
12 28 60 0
c gate 61 11 -60 0
11 -61 0
-60 -61 0
-11 60 61 0
c gate 62 27 -60 0
27 -62 0
-60 -62 0
-27 60 62 0
c gate 63 -61 -62 0
-61 -63 0
-62 -63 0
61 62 63 0
c gate 64 -9 -25 0
-9 -64 0
-25 -64 0
9 25 64 0
c gate 65 -8 -24 0
-8 -65 0
-24 -65 0
8 24 65 0
c gate 66 -10 -26 0
-10 -66 0
-26 -66 0
10 26 66 0
c gate 67 -65 -66 0
-65 -67 0
-66 -67 0
65 66 67 0
c gate 68 -64 67 0
-64 -68 0
67 -68 0
64 -67 68 0
c gate 69 16 32 0
16 -69 0
32 -69 0
-16 -32 69 0
c gate 70 15 31 0
15 -70 0
31 -70 0
-15 -31 70 0
c gate 71 -69 -70 0
-69 -71 0
-70 -71 0
69 70 71 0
c gate 72 -13 -29 0
-13 -72 0
-29 -72 0
13 29 72 0
c gate 73 -16 -32 0
-16 -73 0
-32 -73 0
16 32 73 0
c gate 74 -72 -73 0
-72 -74 0
-73 -74 0
72 73 74 0
c gate 75 71 74 0
71 -75 0
74 -75 0
-71 -74 75 0
c gate 76 68 75 0
68 -76 0
75 -76 0
-68 -75 76 0
c gate 77 -63 76 0
-63 -77 0
76 -77 0
63 -76 77 0
c gate 78 12 28 0
12 -78 0
28 -78 0
-12 -28 78 0
c gate 79 27 61 0
27 -79 0
61 -79 0
-27 -61 79 0
c gate 80 -78 -79 0
-78 -80 0
-79 -80 0
78 79 80 0
c gate 81 9 25 0
9 -81 0
25 -81 0
-9 -25 81 0
c gate 82 10 26 0
10 -82 0
26 -82 0
-10 -26 82 0
c gate 83 -81 -82 0
-81 -83 0
-82 -83 0
81 82 83 0
c gate 84 14 30 0
14 -84 0
30 -84 0
-14 -30 84 0
c gate 85 13 29 0
13 -85 0
29 -85 0
-13 -29 85 0
c gate 86 -84 -85 0
-84 -86 0
-85 -86 0
84 85 86 0
c gate 87 -15 -31 0
-15 -87 0
-31 -87 0
15 31 87 0
c gate 88 -14 -30 0
-14 -88 0
-30 -88 0
14 30 88 0
c gate 89 -87 -88 0
-87 -89 0
-88 -89 0
87 88 89 0
c gate 90 86 89 0
86 -90 0
89 -90 0
-86 -89 90 0
c gate 91 83 90 0
83 -91 0
90 -91 0
-83 -90 91 0
c gate 92 80 91 0
80 -92 0
91 -92 0
-80 -91 92 0
c gate 93 77 92 0
77 -93 0
92 -93 0
-77 -92 93 0
c gate 94 -59 93 0
-59 -94 0
93 -94 0
59 -93 94 0
c PO
94 0
